NAME /Users/henri/Research/solvers/instances/idol-instances/robust/collection/spp_dkp_Lefebvre_et_al_2026/shortest_path_7_8/uncertainty_sets/discrete_knapsack
ROWS
 N  OBJ
 L  primal_lower
COLUMNS
    MARKER    'MARKER'                 'INTORG'
    y[0,1]     OBJ        0
    y[0,1]     primal_lower -2.28
    y[0,2]     OBJ        0
    y[0,2]     primal_lower -1.05
    y[0,3]     OBJ        0
    y[0,3]     primal_lower -1.18
    y[0,4]     OBJ        0
    y[0,4]     primal_lower -1.83
    y[0,5]     OBJ        0
    y[0,5]     primal_lower -1.74
    y[0,6]     OBJ        0
    y[0,6]     primal_lower -4.6
    y[1,0]     OBJ        0
    y[1,0]     primal_lower -1.88
    y[1,2]     OBJ        0
    y[1,2]     primal_lower -3.56
    y[1,3]     OBJ        0
    y[1,3]     primal_lower -3.51
    y[1,5]     OBJ        0
    y[1,5]     primal_lower -1.43
    y[1,6]     OBJ        0
    y[1,6]     primal_lower -1.6
    y[2,0]     OBJ        0
    y[2,0]     primal_lower -1.62
    y[2,1]     OBJ        0
    y[2,1]     primal_lower -0.67
    y[2,3]     OBJ        0
    y[2,3]     primal_lower -4.49
    y[2,5]     OBJ        0
    y[2,5]     primal_lower -4.2
    y[2,6]     OBJ        0
    y[2,6]     primal_lower -2.59
    y[3,0]     OBJ        0
    y[3,0]     primal_lower -1.45
    y[3,1]     OBJ        0
    y[3,1]     primal_lower -4.1
    y[3,2]     OBJ        0
    y[3,2]     primal_lower -3.11
    y[3,5]     OBJ        0
    y[3,5]     primal_lower -1.81
    y[3,6]     OBJ        0
    y[3,6]     primal_lower -2.34
    y[4,0]     OBJ        0
    y[4,0]     primal_lower -2.42
    y[4,5]     OBJ        0
    y[4,5]     primal_lower -4.29
    y[5,0]     OBJ        0
    y[5,0]     primal_lower -2.64
    y[5,1]     OBJ        0
    y[5,1]     primal_lower -3.09
    y[5,2]     OBJ        0
    y[5,2]     primal_lower -0.24
    y[5,3]     OBJ        0
    y[5,3]     primal_lower -1.51
    y[5,4]     OBJ        0
    y[5,4]     primal_lower -0.26
    y[5,6]     OBJ        0
    y[5,6]     primal_lower -0.83
    y[6,0]     OBJ        0
    y[6,0]     primal_lower -4.28
    y[6,1]     OBJ        0
    y[6,1]     primal_lower -4.33
    y[6,2]     OBJ        0
    y[6,2]     primal_lower -3.3
    y[6,3]     OBJ        0
    y[6,3]     primal_lower -3.38
    y[6,5]     OBJ        0
    y[6,5]     primal_lower -2.13
    u[0,1]     OBJ        0
    u[0,1]     primal_lower 88
    u[0,2]     OBJ        0
    u[0,2]     primal_lower 86
    u[0,3]     OBJ        0
    u[0,3]     primal_lower 100
    u[0,4]     OBJ        0
    u[0,4]     primal_lower 35
    u[0,5]     OBJ        0
    u[0,5]     primal_lower 74
    u[0,6]     OBJ        0
    u[0,6]     primal_lower 76
    u[1,0]     OBJ        0
    u[1,0]     primal_lower 79
    u[1,2]     OBJ        0
    u[1,2]     primal_lower 36
    u[1,3]     OBJ        0
    u[1,3]     primal_lower 76
    u[1,5]     OBJ        0
    u[1,5]     primal_lower 78
    u[1,6]     OBJ        0
    u[1,6]     primal_lower 50
    u[2,0]     OBJ        0
    u[2,0]     primal_lower 1
    u[2,1]     OBJ        0
    u[2,1]     primal_lower 89
    u[2,3]     OBJ        0
    u[2,3]     primal_lower 14
    u[2,5]     OBJ        0
    u[2,5]     primal_lower 60
    u[2,6]     OBJ        0
    u[2,6]     primal_lower 36
    u[3,0]     OBJ        0
    u[3,0]     primal_lower 89
    u[3,1]     OBJ        0
    u[3,1]     primal_lower 79
    u[3,2]     OBJ        0
    u[3,2]     primal_lower 14
    u[3,5]     OBJ        0
    u[3,5]     primal_lower 15
    u[3,6]     OBJ        0
    u[3,6]     primal_lower 12
    u[4,0]     OBJ        0
    u[4,0]     primal_lower 19
    u[4,5]     OBJ        0
    u[4,5]     primal_lower 43
    u[5,0]     OBJ        0
    u[5,0]     primal_lower 11
    u[5,1]     OBJ        0
    u[5,1]     primal_lower 76
    u[5,2]     OBJ        0
    u[5,2]     primal_lower 47
    u[5,3]     OBJ        0
    u[5,3]     primal_lower 96
    u[5,4]     OBJ        0
    u[5,4]     primal_lower 10
    u[5,6]     OBJ        0
    u[5,6]     primal_lower 5
    u[6,0]     OBJ        0
    u[6,0]     primal_lower 15
    u[6,1]     OBJ        0
    u[6,1]     primal_lower 45
    u[6,2]     OBJ        0
    u[6,2]     primal_lower 28
    u[6,3]     OBJ        0
    u[6,3]     primal_lower 65
    u[6,5]     OBJ        0
    u[6,5]     primal_lower 86
    MARKER    'MARKER'                 'INTEND'
RHS
    RHS       primal_lower 157
BOUNDS
 LI BND       y[0,1]     0
 UI BND       y[0,1]     1
 LI BND       y[0,2]     0
 UI BND       y[0,2]     1
 LI BND       y[0,3]     0
 UI BND       y[0,3]     1
 LI BND       y[0,4]     0
 UI BND       y[0,4]     1
 LI BND       y[0,5]     0
 UI BND       y[0,5]     1
 LI BND       y[0,6]     0
 UI BND       y[0,6]     1
 LI BND       y[1,0]     0
 UI BND       y[1,0]     1
 LI BND       y[1,2]     0
 UI BND       y[1,2]     1
 LI BND       y[1,3]     0
 UI BND       y[1,3]     1
 LI BND       y[1,5]     0
 UI BND       y[1,5]     1
 LI BND       y[1,6]     0
 UI BND       y[1,6]     1
 LI BND       y[2,0]     0
 UI BND       y[2,0]     1
 LI BND       y[2,1]     0
 UI BND       y[2,1]     1
 LI BND       y[2,3]     0
 UI BND       y[2,3]     1
 LI BND       y[2,5]     0
 UI BND       y[2,5]     1
 LI BND       y[2,6]     0
 UI BND       y[2,6]     1
 LI BND       y[3,0]     0
 UI BND       y[3,0]     1
 LI BND       y[3,1]     0
 UI BND       y[3,1]     1
 LI BND       y[3,2]     0
 UI BND       y[3,2]     1
 LI BND       y[3,5]     0
 UI BND       y[3,5]     1
 LI BND       y[3,6]     0
 UI BND       y[3,6]     1
 LI BND       y[4,0]     0
 UI BND       y[4,0]     1
 LI BND       y[4,5]     0
 UI BND       y[4,5]     1
 LI BND       y[5,0]     0
 UI BND       y[5,0]     1
 LI BND       y[5,1]     0
 UI BND       y[5,1]     1
 LI BND       y[5,2]     0
 UI BND       y[5,2]     1
 LI BND       y[5,3]     0
 UI BND       y[5,3]     1
 LI BND       y[5,4]     0
 UI BND       y[5,4]     1
 LI BND       y[5,6]     0
 UI BND       y[5,6]     1
 LI BND       y[6,0]     0
 UI BND       y[6,0]     1
 LI BND       y[6,1]     0
 UI BND       y[6,1]     1
 LI BND       y[6,2]     0
 UI BND       y[6,2]     1
 LI BND       y[6,3]     0
 UI BND       y[6,3]     1
 LI BND       y[6,5]     0
 UI BND       y[6,5]     1
 LI BND       u[0,1]     0
 UI BND       u[0,1]     1
 LI BND       u[0,2]     0
 UI BND       u[0,2]     1
 LI BND       u[0,3]     0
 UI BND       u[0,3]     1
 LI BND       u[0,4]     0
 UI BND       u[0,4]     1
 LI BND       u[0,5]     0
 UI BND       u[0,5]     1
 LI BND       u[0,6]     0
 UI BND       u[0,6]     1
 LI BND       u[1,0]     0
 UI BND       u[1,0]     1
 LI BND       u[1,2]     0
 UI BND       u[1,2]     1
 LI BND       u[1,3]     0
 UI BND       u[1,3]     1
 LI BND       u[1,5]     0
 UI BND       u[1,5]     1
 LI BND       u[1,6]     0
 UI BND       u[1,6]     1
 LI BND       u[2,0]     0
 UI BND       u[2,0]     1
 LI BND       u[2,1]     0
 UI BND       u[2,1]     1
 LI BND       u[2,3]     0
 UI BND       u[2,3]     1
 LI BND       u[2,5]     0
 UI BND       u[2,5]     1
 LI BND       u[2,6]     0
 UI BND       u[2,6]     1
 LI BND       u[3,0]     0
 UI BND       u[3,0]     1
 LI BND       u[3,1]     0
 UI BND       u[3,1]     1
 LI BND       u[3,2]     0
 UI BND       u[3,2]     1
 LI BND       u[3,5]     0
 UI BND       u[3,5]     1
 LI BND       u[3,6]     0
 UI BND       u[3,6]     1
 LI BND       u[4,0]     0
 UI BND       u[4,0]     1
 LI BND       u[4,5]     0
 UI BND       u[4,5]     1
 LI BND       u[5,0]     0
 UI BND       u[5,0]     1
 LI BND       u[5,1]     0
 UI BND       u[5,1]     1
 LI BND       u[5,2]     0
 UI BND       u[5,2]     1
 LI BND       u[5,3]     0
 UI BND       u[5,3]     1
 LI BND       u[5,4]     0
 UI BND       u[5,4]     1
 LI BND       u[5,6]     0
 UI BND       u[5,6]     1
 LI BND       u[6,0]     0
 UI BND       u[6,0]     1
 LI BND       u[6,1]     0
 UI BND       u[6,1]     1
 LI BND       u[6,2]     0
 UI BND       u[6,2]     1
 LI BND       u[6,3]     0
 UI BND       u[6,3]     1
 LI BND       u[6,5]     0
 UI BND       u[6,5]     1
ENDATA
